1111100 AB
315 340 365 390 415 440 465 495 526 556 586 616 646 673 700 726 752 779 806 832 859 886 913 940 967 994 1021 1048 1075 1105 1140 1175 1210 1245 1288 1331 1374 1423
1111100 BA
377 402 428 472 509 536 561 591 620 639 663 692 722 749 776 802 828 855 882 908 935 962 989 1016 1044 1073 1103 1130 1157 1186 1216 1247 1279 1310 1350 1393 1436 45
0000011 AB
315 346 377 409 446 483 520 558 595 632 670 707 745 782 819 856 893 929 965 1001 1030 1059 1088 1117 1154 1191 1228 1265 1302 1334 1366 1399 1432
0000011 BA
375 406 439 476 517 554 591 629 666 703 741 778 816 853 890 927 964 1000 1036 1072 1101 1130 1159 1188 1225 1262 1294 1325 1362 1394 1426 19 52
